Version identifier: 20.1.0.0 | 2020-11-10 | 9bedb6d68
Tried aggregator 2 times.
MIP Presolve eliminated 921 rows and 540 columns.
MIP Presolve modified 1714 coefficients.
Aggregator did 91 substitutions.
Reduced MIP has 694 rows, 576 columns, and 2191 nonzeros.
Reduced MIP has 157 binaries, 419 generals, 0 SOSs, and 0 indicators.
Presolve time = 0.01 sec. (3.66 ticks)
Found incumbent of value 690.000000 after 0.02 sec. (5.66 ticks)
Probing fixed 20 vars, tightened 174 bounds.
Probing time = 0.00 sec. (0.54 ticks)
Tried aggregator 2 times.
MIP Presolve eliminated 299 rows and 45 columns.
MIP Presolve modified 65 coefficients.
Aggregator did 16 substitutions.
Reduced MIP has 379 rows, 515 columns, and 1226 nonzeros.
Reduced MIP has 227 binaries, 288 generals, 0 SOSs, and 0 indicators.
Presolve time = 0.00 sec. (1.62 ticks)
Probing time = 0.00 sec. (0.13 ticks)
Tried aggregator 1 time.
Detecting symmetries...
MIP Presolve modified 114 coefficients.
Reduced MIP has 379 rows, 515 columns, and 1226 nonzeros.
Reduced MIP has 227 binaries, 288 generals, 0 SOSs, and 0 indicators.
Presolve time = 0.00 sec. (0.98 ticks)
Probing time = 0.00 sec. (0.12 ticks)
Clique table members: 41.
MIP emphasis: balance optimality and feasibility.
MIP search method: dynamic search.
Parallel mode: deterministic, using up to 24 threads.
Root relaxation solution time = 0.00 sec. (1.16 ticks)

        Nodes                                         Cuts/
   Node  Left     Objective  IInf  Best Integer    Best Bound    ItCnt     Gap

*     0+    0                          690.0000        0.0000           100.00%
*     0+    0                           17.0000        0.0000           100.00%
      0     0        0.3333    27       17.0000        0.3333      139   98.04%
      0     0        1.4762   105       17.0000     Cuts: 110      322   91.32%
*     0+    0                            6.0000        1.4762            75.40%
      0     0        2.1000   168        6.0000      Cuts: 81      424   65.00%
      0     0        2.1667   157        6.0000      Cuts: 35      462   63.89%
      0     0        2.5143   181        6.0000      Cuts: 14      560   58.10%
      0     0        2.5333   173        6.0000      Cuts: 60      586   57.78%
      0     0        2.5556   159        6.0000      Cuts: 16      615   57.41%
      0     0        2.6667   152        6.0000      Cuts: 40      628   55.56%
      0     0        2.6667   143        6.0000  ZeroHalf: 36      638   55.56%
      0     0        2.6667   148        6.0000      Cuts: 38      665   55.56%
      0     0        2.6667   110        6.0000  ZeroHalf: 32      671   55.56%
      0     0        2.6667   139        6.0000      Cuts: 20      687   55.56%
*     0+    0                            5.0000        2.6667            46.67%
      0     0        cutoff              5.0000        5.0000      687    0.00%
Elapsed time = 0.16 sec. (71.22 ticks, tree = 0.01 MB, solutions = 4)

Implied bound cuts applied:  12
Flow cuts applied:  1
Mixed integer rounding cuts applied:  5
Zero-half cuts applied:  31
Lift and project cuts applied:  2
Gomory fractional cuts applied:  4

Root node processing (before b&c):
  Real time             =    0.16 sec. (71.29 ticks)
Parallel b&c, 24 threads:
  Real time             =    0.00 sec. (0.00 ticks)
  Sync time (average)   =    0.00 sec.
  Wait time (average)   =    0.00 sec.
                          ------------
Total (root+branch&cut) =    0.16 sec. (71.29 ticks)

Solution status = Optimal
Solution LB = 5
Solution UB = 5
Runtime = 0.166396 seconds
	Command being timed: "/home/min/git_repos/CS598MEBProject/CNT-ILP/build/cnt -s 2 ./output/k6_n20/simC_c1_k6_n20_u1_s1_del02.input-right.cnp"
	User time (seconds): 0.70
	System time (seconds): 0.02
	Percent of CPU this job got: 398%
	Elapsed (wall clock) time (h:mm:ss or m:ss): 0:00.18
	Average shared text size (kbytes): 0
	Average unshared data size (kbytes): 0
	Average stack size (kbytes): 0
	Average total size (kbytes): 0
	Maximum resident set size (kbytes): 52528
	Average resident set size (kbytes): 0
	Major (requiring I/O) page faults: 0
	Minor (reclaiming a frame) page faults: 10165
	Voluntary context switches: 1923
	Involuntary context switches: 104
	Swaps: 0
	File system inputs: 0
	File system outputs: 16
	Socket messages sent: 0
	Socket messages received: 0
	Signals delivered: 0
	Page size (bytes): 4096
	Exit status: 0
